(set-logic NRA)
(declare-fun a () Real)
(assert (exists ((t Real)) (exists ((x Real)) (exists ((y Real)) (and (=  (+ (+ (+ 396 (* t t)) (* x (+ (* t (- 2)) x))) (* y (+ (- 80) (* y 4)))) 0) (=  (+ (+ (+ (- 4) (* x x)) (* y (* y 4))) (* a (+ (+ (* x (* t (- 2))) (* y (* t (- 8)))) (* a (* t (* t 5)))))) 0) (>  t 0) (>  a 0))))))
(apply qe)
